; benchmark generated from python API
(set-info :status unknown)
(declare-fun S_2 () Real)
(declare-fun A_2 () Real)
(declare-fun L_2 () Real)
(declare-fun S_4 () Real)
(declare-fun A_4 () Real)
(declare-fun L_0 () Real)
(declare-fun S_0 () Real)
(declare-fun A_0 () Real)
(declare-fun A_3 () Real)
(declare-fun S_3 () Real)
(declare-fun L_1 () Real)
(declare-fun A_1 () Real)
(declare-fun S_1 () Real)
(assert
 (let (($x34 (>= L_0 0.0)))
 (let ((?x421 (* (- 1.0) A_1)))
 (let ((?x413 (* (- 1.0) A_3)))
 (let ((?x2275 (+ L_2 ?x413 ?x421 S_4 S_0 L_1)))
 (let (($x28857 (<= 0.0 ?x2275)))
 (let ((?x513 (* (- 1.0) L_1)))
 (let ((?x417 (* (- 1.0) A_2)))
 (let ((?x902 (* 2.0 L_2)))
 (let ((?x903 (+ ?x902 ?x413 ?x417 A_1 S_4 ?x513)))
 (let (($x61 (= L_2 L_1)))
 (let (($x31487 (or $x61 (<= (+ L_2 ?x417 (* (/ 1.0 3.0) S_4) (* (/ 2.0 3.0) S_1)) (- 5.0)))))
 (let ((?x5145 (* 2.0 S_4)))
 (let ((?x918 (* (- 2.0) A_2)))
 (let ((?x2309 (* 2.0 A_3)))
 (let ((?x3009 (* (- 2.0) A_4)))
 (let ((?x401 (* (- 1.0) S_3)))
 (let (($x20465 (<= (+ ?x513 A_1 ?x401 (* (- 1.0) A_4) A_3 ?x417 S_4 L_2) 0.0)))
 (let (($x31284 (or $x61 (<= (+ (* (/ 1.0 2.0) S_3) ?x417 (* (/ 1.0 2.0) S_1) L_2) (- 5.0)))))
 (let (($x47364 (or $x61 (<= (+ ?x401 (* (- 1.0) A_4) A_3 ?x417 S_4 S_1 L_2) 0.0))))
 (let (($x30868 (<= (+ ?x3009 ?x2309 (* (- 3.0) A_2) ?x5145 S_0 (* 3.0 L_2)) (- 5.0))))
 (let (($x35496 (or $x61 (<= (+ ?x513 A_1 (* (- 1.0) A_4) A_3 ?x918 S_4 ?x902) (- 5.0)) $x30868)))
 (let ((?x929 (* 3.0 L_2)))
 (let ((?x931 (* (- 3.0) A_2)))
 (let ((?x919 (* 2.0 A_1)))
 (let ((?x920 (* (- 2.0) L_1)))
 (let (($x31224 (or $x61 (<= (+ ?x920 ?x919 ?x931 S_4 ?x929) (- 15.0)) (<= (+ ?x417 (* (/ 1.0 2.0) S_4) (* (/ 1.0 2.0) S_0) L_2) (- 5.0)))))
 (let (($x47893 (or $x61 $x28857 (<= (+ ?x929 (* (- 2.0) A_3) ?x417 ?x5145 S_0) (- 5.0)))))
 (let (($x1332 (<= (+ (* (- 1.0) L_2) ?x401 A_2) 0.0)))
 (let (($x27209 (or $x1332 (<= ?x2275 0.0) (<= (+ L_2 ?x401 ?x413 A_1 S_4 ?x513) 0.0))))
 (let (($x48517 (or $x61 (<= (+ (* (- 1.0) A_4) A_3 ?x918 S_4 S_1 ?x902) (- 5.0)))))
 (let (($x21594 (<= (+ (* (- 1.0) A_4) A_3 ?x417 S_4 (* (- 1.0) S_2) S_0 L_2) 0.0)))
 (let (($x2092 (<= (+ A_1 (* (- 1.0) S_2) ?x513) 0.0)))
 (let (($x51 (= L_1 L_0)))
 (let (($x48950 (or $x51 (<= (+ ?x401 (* (- 1.0) A_4) A_3 ?x421 S_4 S_0 L_1) 0.0))))
 (let ((?x1390 (* (/ 1.0 2.0) S_4)))
 (let (($x30898 (<= (+ (* (- (/ 1.0 2.0)) A_2) (* (/ 1.0 2.0) L_2) ?x421 ?x1390 S_0 L_1) (- 5.0))))
 (let ((?x1603 (* 2.0 S_1)))
 (let ((?x409 (* (- 1.0) A_4)))
 (let ((?x2438 (* (- 2.0) S_3)))
 (let (($x48749 (or $x51 $x1332 (<= (+ ?x2438 ?x409 A_3 ?x421 S_4 ?x1603 L_1) 0.0))))
 (let ((?x11601 (* (/ 1.0 2.0) A_3)))
 (let ((?x2076 (* (- (/ 1.0 2.0)) A_4)))
 (let (($x30455 (<= (+ ?x2076 ?x11601 (* (- (/ 3.0 2.0)) A_1) ?x1390 S_0 (* (/ 3.0 2.0) L_1)) (- 5.0))))
 (let (($x30854 (or $x61 (<= (+ L_2 ?x417 (* (/ 3.0 2.0) S_1) (* (- (/ 1.0 2.0)) S_0)) (- 5.0)))))
 (let (($x48315 (or $x51 (<= (+ ?x421 (* (/ 1.0 4.0) S_4) (* (/ 3.0 4.0) S_0) L_1) (- 5.0)))))
 (let ((?x933 (* (- 1.0) S_0)))
 (let ((?x2310 (* (- 2.0) S_4)))
 (let ((?x923 (* (- 2.0) L_2)))
 (let ((?x924 (* 2.0 A_2)))
 (let (($x906 (<= (+ (* (- 1.0) L_2) A_3 (* (- 1.0) S_4)) 0.0)))
 (let (($x24915 (or $x906 (<= (+ (* (- 1.0) S_4) ?x1603 ?x933) 0.0) (<= (+ ?x924 ?x923 ?x2310 S_1 ?x933) 0.0))))
 (let (($x24604 (or $x51 (<= (+ ?x417 L_2 ?x409 A_3 ?x421 S_4 S_0 L_1) 0.0))))
 (let (($x48783 (or $x61 (<= (+ ?x513 A_1 ?x417 L_2) (- 10.0)) (<= (+ ?x417 S_0 L_2) (- 15.0)))))
 (let ((?x2280 (* (/ 1.0 2.0) L_1)))
 (let ((?x450 (* (- 1.0) S_2)))
 (let ((?x2791 (* (- (/ 1.0 2.0)) A_1)))
 (let (($x48385 (or $x51 (<= (+ (* (/ 1.0 3.0) S_3) ?x421 (* (/ 2.0 3.0) S_0) L_1) (- 5.0)))))
 (let ((?x1189 (* 4.0 L_2)))
 (let ((?x1242 (* (- 4.0) L_1)))
 (let ((?x461 (* (- 1.0) S_1)))
 (let ((?x1183 (* 4.0 A_1)))
 (let ((?x1188 (* (- 4.0) A_2)))
 (let (($x1179 (<= (+ ?x929 S_3 ?x931 (* 3.0 A_1) ?x461 (* (- 3.0) L_1)) 0.0)))
 (let ((?x934 (* (- 3.0) L_1)))
 (let ((?x954 (* (- 1.0) A_0)))
 (let ((?x932 (* 3.0 A_1)))
 (let (($x30469 (or $x61 (<= (+ ?x513 A_1 S_3 ?x918 ?x902) (- 10.0)) (<= (+ (* (/ 2.0 3.0) S_3) ?x417 (* (/ 1.0 3.0) S_0) L_2) (- 5.0)))))
 (let (($x28954 (<= (+ A_2 (* (- 1.0) L_2) (* (- 1.0) S_4)) (- 5.0))))
 (let (($x30459 (or $x906 (<= (+ (* (- (/ 1.0 3.0)) S_4) (* (/ 1.0 3.0) S_0)) (- 5.0)) (<= (+ (* (- (/ 1.0 2.0)) L_1) (* (/ 1.0 2.0) A_1) (* (- (/ 1.0 2.0)) S_4)) (- 5.0)) $x28954)))
 (let (($x6239 (<= (+ A_2 ?x421 (* (- 1.0) S_4) S_2 L_1 (* (- 1.0) L_2)) 0.0)))
 (let ((?x1838 (* 5.0 L_2)))
 (let ((?x1837 (* (- 5.0) L_1)))
 (let ((?x1836 (* 5.0 A_1)))
 (let ((?x1835 (* (- 5.0) A_2)))
 (let (($x14595 (or $x2092 (<= (+ L_2 ?x417 S_4 (* (- 2.0) S_2) (* 2.0 S_0)) 0.0))))
 (let (($x30265 (or $x1332 (<= (+ ?x401 ?x1390 (* (/ 1.0 2.0) S_0)) 0.0) (<= (+ (* (- 3.0) S_3) ?x919 ?x920 S_4) 0.0))))
 (let (($x7959 (<= (+ A_2 (* (- 1.0) L_2) ?x954 (* (- 1.0) S_4) S_1 L_0) 0.0)))
 (let (($x18163 (or $x906 (<= (+ ?x954 (* (- (/ 1.0 2.0)) S_4) (* (/ 3.0 2.0) S_1) L_0) 0.0) $x7959)))
 (let ((?x926 (* 2.0 L_1)))
 (let ((?x428 (* (- 1.0) S_4)))
 (let ((?x925 (* (- 2.0) A_1)))
 (let (($x26951 (or $x51 (<= (+ ?x421 (* (/ 1.0 2.0) S_2) (* (/ 1.0 2.0) S_0) L_1) (- 5.0)))))
 (let (($x29341 (or $x1332 (<= (+ L_2 (* (- (/ 1.0 2.0)) S_3) ?x413 S_4 (* (/ 1.0 2.0) S_0)) 0.0) (<= 0.0 (+ (* (/ 1.0 2.0) S_3) ?x421 (* (/ 1.0 2.0) S_0) L_1)))))
 (let (($x29166 (or $x1332 (<= (+ ?x401 A_1 ?x513) (- 5.0)) (<= (+ (* (- (/ 1.0 2.0)) S_3) (* (/ 1.0 2.0) S_0)) (- 5.0)))))
 (let (($x28561 (<= (+ (* (- (/ 1.0 2.0)) S_4) (* (/ 1.0 2.0) S_1)) (- 5.0))))
 (let ((?x1193 (* (- 3.0) L_2)))
 (let ((?x1147 (* 3.0 L_1)))
 (let ((?x1192 (* (- 3.0) A_1)))
 (let ((?x1195 (* 3.0 A_2)))
 (let (($x48129 (or $x51 (<= (+ ?x401 A_2 ?x421 S_1 L_1 (* (- 1.0) L_2)) 0.0))))
 (let (($x47245 (or $x51 (<= (+ A_2 ?x421 ?x450 S_0 L_1 (* (- 1.0) L_2)) 0.0))))
 (let (($x108 (>= S_1 S_0)))
 (let (($x111 (>= S_2 S_1)))
 (let (($x114 (>= S_3 S_2)))
 (let (($x117 (>= S_4 S_3)))
 (let (($x119 (>= A_1 A_0)))
 (let (($x120 (>= A_2 A_1)))
 (let (($x121 (>= A_3 A_2)))
 (let (($x122 (>= A_4 A_3)))
 (and $x122 $x121 $x120 $x119 $x117 $x114 $x111 $x108 (or (not (<= 0.0 (+ ?x513 L_0))) $x51) (or $x61 (<= (+ L_2 ?x417 S_2) (- 5.0))) (or $x61 (<= (+ L_2 ?x417 A_1 ?x513) (- 5.0))) $x47245 (or $x51 (<= (+ A_2 ?x925 S_0 ?x926 (* (- 1.0) L_2)) (- 5.0))) (or $x51 (<= (+ ?x401 ?x924 ?x925 S_0 ?x926 ?x923) 0.0)) (or $x61 (not (<= 0.0 (+ (* (- 1.0) L_2) L_1)))) (or $x51 (<= (+ ?x421 S_1 L_1) (- 5.0))) $x48129 (<= (+ ?x421 S_1 L_1) 0.0) (or $x1332 (<= (+ ?x401 S_1) (- 5.0))) (or $x906 (<= (+ ?x428 S_2) (- 5.0))) (or $x1332 (<= (+ ?x401 ?x954 ?x1603 L_0) 0.0)) (or $x51 $x906 (<= (+ ?x1195 ?x1192 ?x428 S_0 ?x1147 ?x1193) 0.0)) (or $x61 (<= (+ ?x902 ?x918 ?x919 ?x954 S_2 ?x920 L_0) 0.0)) (or $x61 (<= (+ ?x902 ?x918 ?x919 S_2 ?x461 ?x920) 0.0)) (or $x906 (<= 0.0 (+ L_2 ?x417 ?x1390 (* (/ 1.0 2.0) S_1))) $x28561) (or $x906 $x28561 $x28954) (or $x1332 (<= (+ ?x2438 (* 3.0 S_1) ?x933) 0.0)) (or $x61 (<= (+ ?x401 ?x918 ?x919 S_4 ?x920 ?x902) 0.0)) $x29166 (or $x2092 (<= (+ ?x450 S_0) (- 5.0))) (or $x51 (<= (+ ?x421 S_0 L_1) (- 10.0))) $x29341 (or $x61 (<= ?x903 0.0)) (or $x61 (<= (+ ?x929 ?x931 ?x932 S_2 ?x933 ?x934) 0.0)) (or (<= (+ (* (/ 1.0 4.0) S_4) ?x450 (* (/ 3.0 4.0) S_0)) 0.0) $x2092) (or $x61 (<= (+ ?x417 A_1 ?x954 S_1 ?x513 L_2 L_0) 0.0)) (or $x51 (<= ?x2275 (- 5.0))) (or (<= (+ L_2 ?x413 S_4 ?x450 S_0) 0.0) $x2092) (or $x61 (<= (+ ?x902 S_3 ?x918 A_1 ?x513) (- 5.0))) (or $x2092 (<= (+ (* (/ 1.0 3.0) S_3) ?x450 (* (/ 2.0 3.0) S_0)) 0.0)) (or $x51 $x906 (<= (+ ?x421 ?x428 (* 2.0 S_2) L_1) (- 5.0))) $x26951 (or $x1332 (<= (+ L_2 ?x401 ?x413 S_4 S_1) 0.0)) (or $x2092 (<= (+ L_2 S_3 ?x417 ?x450 S_0) 0.0)) (or $x51 (<= (+ ?x417 L_2 S_3 ?x421 S_0 L_1) (- 5.0))) (or $x906 (<= (+ ?x2310 (* 3.0 S_2) ?x461) 0.0)) (or $x906 (<= (+ ?x954 ?x2310 (* 3.0 S_2) L_0) 0.0)) (or $x51 $x906 (<= (+ ?x924 ?x925 ?x428 S_1 ?x926 ?x923) 0.0)) $x18163 (or $x1332 (<= (+ (* (- 3.0) S_3) S_4 ?x1603) 0.0)) $x30265 (or $x61 (<= (+ ?x902 S_3 ?x918 ?x919 ?x450 ?x920) 0.0)) $x14595 (or $x61 (<= (+ ?x931 ?x932 S_4 ?x450 ?x934 ?x929) 0.0)) (or $x61 (<= (+ ?x931 ?x919 S_4 ?x920 ?x929) (- 5.0))) (or $x61 (<= (+ ?x918 ?x919 S_1 ?x933 ?x920 ?x902) 0.0)) (or $x61 (<= (+ ?x409 A_3 ?x918 A_1 S_4 ?x513 ?x902) 0.0)) (or $x61 (<= (+ ?x1835 ?x1836 S_4 ?x933 ?x1837 ?x1838) 0.0)) (or $x61 (<= (+ ?x1188 ?x1183 ?x954 S_4 ?x1242 ?x1189 L_0) 0.0)) (or $x906 (<= (+ (* (- 3.0) S_4) (* 4.0 S_2) ?x933) 0.0)) (or $x51 $x906 $x6239) $x30459 $x30469 (or $x61 (<= (+ ?x929 S_3 ?x931 ?x932 ?x954 ?x934 L_0) 0.0)) (or $x61 $x1179) (or $x61 (<= (+ ?x1189 S_3 ?x1188 ?x1183 ?x933 ?x1242) 0.0)) (or $x61 (<= (+ ?x1188 ?x1183 S_4 ?x461 ?x1242 ?x1189) 0.0)) (or $x61 (<= (+ L_2 ?x417 ?x954 ?x1603 L_0) (- 5.0))) (or $x906 (<= (+ ?x2280 ?x2791 (* (- (/ 1.0 2.0)) S_4) S_2) 0.0)) $x48385 (or $x51 (<= (+ ?x2076 ?x11601 ?x2791 ?x1390 ?x450 S_0 ?x2280) 0.0)) $x48783 $x24604 $x24915 $x48315 $x30854 (or $x51 $x30455) $x48749 (or $x51 $x30898) $x48950 (or $x61 (<= (+ L_2 ?x417 S_1) (- 10.0))) (or $x61 $x2092 $x21594) $x48517 $x27209 $x47893 $x31224 $x35496 $x47364 $x31284 (or $x61 $x20465 (<= (+ ?x401 ?x3009 ?x2309 ?x918 ?x5145 S_0 ?x902) 0.0)) (or $x61 (<= (+ ?x902 ?x413 ?x417 S_4 S_1) (- 5.0))) $x31487 (or $x61 (<= ?x903 (- 5.0)) (not $x28857)) $x34 (not (>= (+ L_2 S_3 ?x413) 0.0)) (<= (+ ?x954 S_0 L_0) 0.0) (<= (+ L_2 ?x409 S_4) 0.0) (<= (+ L_2 ?x417 S_2) 0.0))))))))))))))))))))))))))))))))))))))))))))))))))))))))))))))))))))))))))))))))))))))))))))))))))))))
(check-sat)
